qe/outputs/qe/cbrdelay_obs_newl/T=6,eliminate=[I_0,I_1,I_2,I_3,I_4,I_5,L_1,L_2,L_3,L_4,L_5,lhs=S_5].smt2
; benchmark generated from python API
(set-info :status unknown)
(declare-fun S_2 () Real)
(declare-fun B () Real)
(declare-fun S_4 () Real)
(declare-fun S_1 () Real)
(declare-fun C () Real)
(declare-fun L_0 () Real)
(declare-fun A_0 () Real)
(declare-fun S_0 () Real)
(declare-fun S_5 () Real)
(declare-fun S_3 () Real)
(declare-fun A_1 () Real)
(declare-fun A_4 () Real)
(declare-fun A_5 () Real)
(declare-fun A_2 () Real)
(declare-fun A_3 () Real)
(assert
 (let (($x39 (>= L_0 0.0)))
 (let (($x803 (>= C 5.0)))
 (let (($x24762 (<= 0.0 (+ S_4 (* (- 1.0) B) (* 3.0 C) (* (- 1.0) S_5)))))
 (let (($x24763 (not $x24762)))
 (let (($x51180 (or (not (<= 0.0 (+ S_4 A_4 (* (- 1.0) A_1) (* (- 1.0) S_5)))) $x24763)))
 (let (($x14707 (<= (+ B A_4 (* (- 1.0) A_1) (* (- 1.0) S_5) S_1) 0.0)))
 (let (($x2069 (<= (+ (* (- 1.0) L_0) A_4 (* (- 1.0) S_5)) 0.0)))
 (let (($x1772 (<= (+ (* 3.0 C) (* (- 1.0) S_5) S_1) 0.0)))
 (let ((?x277 (* (- 1.0) B)))
 (let ((?x1156 (* 2.0 C)))
 (let ((?x260 (* (- 1.0) L_0)))
 (let ((?x433 (* (- 1.0) S_4)))
 (let ((?x419 (* (- 1.0) S_2)))
 (let ((?x454 (* (- 1.0) A_4)))
 (let ((?x361 (* (- 1.0) C)))
 (let (($x16957 (<= (+ (* (- 1.0) A_0) L_0 ?x277 (* (- 2.0) C) ?x454 A_1 S_5) 0.0)))
 (let (($x8800 (<= (+ ?x1156 (* (- 1.0) S_5) S_2) 0.0)))
 (let (($x1555 (<= (+ B ?x361 A_4 (* (- 1.0) A_1) (* (- 1.0) S_5) S_2) 0.0)))
 (let (($x16935 (<= (+ ?x277 (* (- 2.0) C) ?x454 A_1 S_5 (* (- 1.0) S_1)) 0.0)))
 (let (($x16953 (<= (+ ?x277 (* (- 3.0) C) ?x454 A_1 S_5 (* (- 1.0) S_0)) 0.0)))
 (let (($x6676 (<= (+ (* (- 1.0) S_5) C S_3) 0.0)))
 (let ((?x440 (* (- 1.0) S_5)))
 (let ((?x446 (* (- 1.0) A_1)))
 (let ((?x1178 (* (- 2.0) C)))
 (let (($x2500 (<= (+ (* (- 1.0) A_0) L_0 ?x277 ?x361 (* (- 1.0) A_5) A_1 S_5) 0.0)))
 (let (($x1984 (<= (+ ?x277 ?x361 (* (- 1.0) A_5) A_1 S_5 (* (- 1.0) S_1)) 0.0)))
 (let (($x2610 (<= (+ ?x277 ?x1178 (* (- 1.0) A_5) A_1 S_5 (* (- 1.0) S_0)) 0.0)))
 (let (($x4704 (<= (+ ?x440 (* 4.0 C) S_0) 0.0)))
 (let (($x2061 (<= (+ B C A_4 ?x446 ?x440 S_0) 0.0)))
 (let (($x4920 (<= (+ (* (- 1.0) A_5) A_2 S_5 ?x277 ?x1178 (* (- 1.0) S_1)) 0.0)))
 (let (($x6442 (<= (+ (* (- 1.0) A_0) L_0 (* (- 1.0) A_5) A_2 S_5 ?x277 ?x1178) 0.0)))
 (let ((?x1285 (* (- 1.0) S_0)))
 (let ((?x1216 (* (- 3.0) C)))
 (let ((?x457 (* (- 1.0) A_5)))
 (let (($x128 (>= S_1 S_0)))
 (let (($x131 (>= S_2 S_1)))
 (let (($x134 (>= S_3 S_2)))
 (let (($x137 (>= S_4 S_3)))
 (let (($x140 (>= S_5 S_4)))
 (let (($x143 (>= A_2 A_1)))
 (let (($x144 (>= A_3 A_2)))
 (let (($x145 (>= A_4 A_3)))
 (let (($x146 (>= A_5 A_4)))
 (and (<= (+ A_0 ?x260) S_4) $x146 $x145 $x144 $x143 $x140 $x137 $x134 $x131 $x128 (<= (+ ?x277 C ?x457 A_1 S_5 (* (- 1.0) S_3)) 0.0) (<= (+ ?x433 (* 3.0 C) S_0) 0.0) (not (<= 0.0 (+ S_4 ?x277 C (* (- 1.0) S_3)))) (<= (+ ?x1178 S_3 ?x419) 0.0) (<= (+ (* (- 4.0) C) S_3 ?x1285) 0.0) (<= (+ S_4 ?x1178 (* (- 1.0) S_3)) 0.0) (<= (+ ?x433 C S_2) 0.0) (<= (+ ?x1216 S_3 (* (- 1.0) S_1)) 0.0) (<= (+ S_4 (* (- 1.0) A_0) L_0 (* (- 4.0) C)) 0.0) (<= (+ S_5 ?x1216 (* (- 1.0) S_3)) 0.0) (<= (+ S_4 (* (- 4.0) C) (* (- 1.0) S_1)) 0.0) (<= (+ (* (- 1.0) A_0) L_0 S_5 (* (- 5.0) C)) 0.0) (not (<= 0.0 (+ S_4 (* (- 1.0) A_0) L_0 ?x277 ?x361))) (<= (+ S_5 (* (- 5.0) C) (* (- 1.0) S_1)) 0.0) (<= (+ S_5 (* (- 4.0) C) ?x419) 0.0) (<= (+ S_4 ?x1216 ?x419) 0.0) (<= (+ ?x1178 S_1 ?x1285) 0.0) (not (<= 0.0 (+ S_4 ?x277 ?x1178 ?x1285))) (<= (+ S_4 (* (- 5.0) C) ?x1285) 0.0) (not (<= 0.0 (+ S_4 ?x277 ?x361 (* (- 1.0) S_1)))) (not (<= 0.0 (+ ?x277 ?x1156))) (<= (+ S_5 (* (- 6.0) C) ?x1285) 0.0) (or (<= (+ ?x361 A_2 ?x446) 0.0) $x24763) (or (<= (+ ?x361 A_2 ?x446) 0.0) $x1772) (or (<= (+ ?x361 A_2 ?x446) 0.0) $x4704) (or (<= (+ ?x361 A_2 ?x446) 0.0) $x8800) (<= (+ L_0 ?x457 S_5) 0.0) (<= (+ ?x433 ?x457 A_2 S_5 ?x277 C) 0.0) (<= (+ ?x433 ?x1156 S_1) 0.0) (<= (+ ?x457 A_2 S_5 ?x277 ?x1216 ?x1285) 0.0) (<= (+ ?x457 A_2 S_5 ?x277 ?x361 ?x419) 0.0) $x6442 (<= (+ ?x457 A_2 S_5 ?x277 (* (- 1.0) S_3)) 0.0) $x4920 (or $x2061 $x2069 $x6676) (or $x2061 $x2069 $x4704) $x2610 $x1984 (<= (+ ?x277 ?x457 A_1 S_5 ?x419) 0.0) (<= (+ ?x433 ?x277 ?x1156 ?x457 A_1 S_5) 0.0) $x2500 (or (<= (+ B ?x1216 A_4 ?x446) 0.0) $x1772 $x2069) (<= (+ L_0 ?x454 S_5 ?x361) 0.0) (or (<= (+ B ?x1178 A_4 ?x446 ?x440 S_3) 0.0) $x2069 $x6676) $x16953 (<= (+ ?x433 ?x277 C ?x454 A_1 S_5) 0.0) (<= (+ ?x277 ?x454 A_1 S_5 (* (- 1.0) S_3)) 0.0) $x16935 (or $x1555 $x2069 $x8800) $x16957 (<= (+ ?x277 ?x361 ?x454 A_1 S_5 ?x419) 0.0) (or $x1772 (<= (+ ?x433 ?x260 A_1 ?x1156 ?x277) 0.0) $x14707) (or $x1772 $x2069 $x14707) $x51180 $x803 $x39 (<= (+ C (* (- 1.0) S_3) S_1) 0.0) (<= (+ (* (- 1.0) A_0) L_0 S_0) 0.0) (not (>= (+ S_4 L_0 ?x446) 0.0)) (<= (+ (* (- 1.0) S_3) ?x1156 S_0) 0.0) (<= (+ (* (- 1.0) A_0) L_0 ?x1216 S_3) 0.0) (<= (+ ?x1216 S_2 ?x1285) 0.0) (<= (+ (* (- 1.0) A_0) L_0 ?x1178 S_2) 0.0) (<= (+ ?x433 S_5 ?x1178) 0.0) (<= (+ C ?x419 S_0) 0.0) (<= (+ ?x1178 S_2 (* (- 1.0) S_1)) 0.0) (<= (+ (* (- 1.0) A_0) L_0 ?x361 S_1) 0.0) (not (>= (+ S_4 ?x277 ?x419) 0.0)))))))))))))))))))))))))))))))))))))))))))))))
(check-sat)
